% Logging successfully configured
%%%mzn-stat: initTime=0.022493058
%%%mzn-stat: objective=1136
%%%mzn-stat: nodes=130991
%%%mzn-stat: restarts=0
%%%mzn-stat: peakDepth=829
%%%mzn-stat: solveTime=306.309864212
%%%mzn-stat: variables=1414
%%%mzn-stat: propagators=1077
%%%mzn-stat: failures=128667
%%%mzn-stat: propagations=3913861
%%%mzn-stat: nogoods=128667
%%%mzn-stat: numAtomicConstraintsPropagated=0
%%%mzn-stat: circuitNumber1PropagationsTotal=769316
%%%mzn-stat: circuitNumber1CircuitConflicts=120181
%%%mzn-stat: circuitNumber1AlldiffConflicts=436
%%%mzn-stat: circuitNumber1TotalFixedEdgesAtConflict=11170866
%%%mzn-stat: circuitNumber1NumberOfConflicts=120617
%%%mzn-stat: circuitNumber1GacPrunings=1016288
%%%mzn-stat: circuitNumber1PropagationsThatGacPruned=419214
%%%mzn-stat: circuitNumber1TotalPruningHallSetSize=2340754
%%%mzn-stat: circuitNumber1NumberOfPruningExplanations=1016288
%%%mzn-stat: circuitNumber1MaxPruningHallSetSize=64
%%%mzn-stat: circuitNumber1TotalSccSizeAtPruning=1603168
%%%mzn-stat: circuitNumber1NumberOfSccPruningCalls=419214
%%%mzn-stat: circuitNumber1TotalVarsInvolvedInPruning=866940
%%%mzn-stat: circuitNumber1MaxValuesPrunedFromSingleVar=7
%%%mzn-stat: circuitNumber1HallCircuitChecks=1938807
%%%mzn-stat: circuitNumber1HallCircuitPrunings=115125
%%%mzn-stat: circuitNumber1CircuitPreventPrunings=370787
%%%mzn-stat: AverageConflictSize=48.69231426861588
%%%mzn-stat: NumUnitNogoodsLearned=0
%%%mzn-stat: AverageLearnedNogoodLength=54.20214973536338
%%%mzn-stat: AverageBacktrackAmount=0
%%%mzn-stat: AverageLbd=53.32535148872671
%%%mzn-stat: 2AutonomousSearchNumBackupCalled=766
%%%mzn-stat: 2AutonomousSearchNumPredicatesRemoved=0
%%%mzn-stat: 2AutonomousSearchNumCalls=767
%%%mzn-stat: 2AutonomousSearchNumPredicatesAdded=4348
%%%mzn-stat: 2AutonomousSearchAverageSizeOfHeap=5.66883963494133
%%%mzn-stat: 2AutonomousSearchNumAssignedPredicatesEncountered=4348
%%%mzn-stat-end
maxleg = 1136;
succ = array1d(1..100,[35, 11, 26, 7, 12, 8, 16, 28, 6, 25, 15, 14, 4, 9, 23, 19, 40, 42, 22, 66, 33, 34, 49, 30, 32, 5, 2, 43, 13, 31, 37, 39, 41, 38, 27, 3, 57, 36, 47, 54, 24, 44, 10, 56, 50, 69, 71, 55, 73, 68, 29, 79, 21, 98, 46, 1, 59, 70, 90, 89, 87, 51, 64, 76, 52, 65, 48, 95, 77, 91, 81, 100, 75, 53, 86, 20, 80, 74, 83, 45, 17, 96, 85, 63, 61, 60, 88, 78, 67, 58, 62, 97, 18, 72, 99, 84, 82, 93, 94, 92]);
% time elapsed: 313.40 s
----------
%%%mzn-stat: initTime=0.022493058
%%%mzn-stat: objective=1000
%%%mzn-stat: nodes=131794
%%%mzn-stat: restarts=0
%%%mzn-stat: peakDepth=829
%%%mzn-stat: solveTime=306.334985423
%%%mzn-stat: variables=1414
%%%mzn-stat: propagators=1077
%%%mzn-stat: failures=128667
%%%mzn-stat: propagations=3915751
%%%mzn-stat: nogoods=128667
%%%mzn-stat: numAtomicConstraintsPropagated=0
%%%mzn-stat: circuitNumber1PropagationsTotal=769454
%%%mzn-stat: circuitNumber1CircuitConflicts=120181
%%%mzn-stat: circuitNumber1AlldiffConflicts=436
%%%mzn-stat: circuitNumber1TotalFixedEdgesAtConflict=11170866
%%%mzn-stat: circuitNumber1NumberOfConflicts=120617
%%%mzn-stat: circuitNumber1GacPrunings=1016705
%%%mzn-stat: circuitNumber1PropagationsThatGacPruned=419284
%%%mzn-stat: circuitNumber1TotalPruningHallSetSize=2342149
%%%mzn-stat: circuitNumber1NumberOfPruningExplanations=1016705
%%%mzn-stat: circuitNumber1MaxPruningHallSetSize=64
%%%mzn-stat: circuitNumber1TotalSccSizeAtPruning=1603594
%%%mzn-stat: circuitNumber1NumberOfSccPruningCalls=419284
%%%mzn-stat: circuitNumber1TotalVarsInvolvedInPruning=867325
%%%mzn-stat: circuitNumber1MaxValuesPrunedFromSingleVar=7
%%%mzn-stat: circuitNumber1HallCircuitChecks=1939073
%%%mzn-stat: circuitNumber1HallCircuitPrunings=115130
%%%mzn-stat: circuitNumber1CircuitPreventPrunings=370829
%%%mzn-stat: AverageConflictSize=48.69231426861588
%%%mzn-stat: NumUnitNogoodsLearned=0
%%%mzn-stat: AverageLearnedNogoodLength=54.20214973536338
%%%mzn-stat: AverageBacktrackAmount=0
%%%mzn-stat: AverageLbd=53.32535148872671
%%%mzn-stat: 2AutonomousSearchNumBackupCalled=1506
%%%mzn-stat: 2AutonomousSearchNumPredicatesRemoved=0
%%%mzn-stat: 2AutonomousSearchNumCalls=1508
%%%mzn-stat: 2AutonomousSearchNumPredicatesAdded=4348
%%%mzn-stat: 2AutonomousSearchAverageSizeOfHeap=5.76657824933687
%%%mzn-stat: 2AutonomousSearchNumAssignedPredicatesEncountered=8696
%%%mzn-stat-end
maxleg = 1000;
succ = array1d(1..100,[35, 11, 26, 7, 12, 8, 16, 28, 6, 25, 15, 14, 4, 9, 23, 19, 40, 42, 22, 66, 33, 34, 49, 30, 32, 5, 2, 43, 13, 31, 37, 39, 41, 38, 27, 3, 57, 36, 47, 54, 24, 44, 10, 56, 50, 69, 71, 55, 73, 68, 29, 79, 21, 98, 46, 60, 59, 70, 90, 89, 1, 51, 64, 76, 52, 65, 48, 95, 77, 91, 81, 100, 75, 53, 86, 20, 80, 87, 83, 45, 17, 96, 85, 63, 61, 93, 88, 74, 67, 58, 62, 97, 78, 72, 99, 84, 82, 18, 94, 92]);
% time elapsed: 313.43 s
----------
%%%mzn-stat: initTime=0.022493058
%%%mzn-stat: objective=643
%%%mzn-stat: nodes=132597
%%%mzn-stat: restarts=0
%%%mzn-stat: peakDepth=829
%%%mzn-stat: solveTime=306.364477314
%%%mzn-stat: variables=1414
%%%mzn-stat: propagators=1077
%%%mzn-stat: failures=128669
%%%mzn-stat: propagations=3917670
%%%mzn-stat: nogoods=128669
%%%mzn-stat: numAtomicConstraintsPropagated=0
%%%mzn-stat: circuitNumber1PropagationsTotal=769593
%%%mzn-stat: circuitNumber1CircuitConflicts=120183
%%%mzn-stat: circuitNumber1AlldiffConflicts=436
%%%mzn-stat: circuitNumber1TotalFixedEdgesAtConflict=11170973
%%%mzn-stat: circuitNumber1NumberOfConflicts=120619
%%%mzn-stat: circuitNumber1GacPrunings=1017172
%%%mzn-stat: circuitNumber1PropagationsThatGacPruned=419353
%%%mzn-stat: circuitNumber1TotalPruningHallSetSize=2344651
%%%mzn-stat: circuitNumber1NumberOfPruningExplanations=1017172
%%%mzn-stat: circuitNumber1MaxPruningHallSetSize=64
%%%mzn-stat: circuitNumber1TotalSccSizeAtPruning=1604121
%%%mzn-stat: circuitNumber1NumberOfSccPruningCalls=419353
%%%mzn-stat: circuitNumber1TotalVarsInvolvedInPruning=867739
%%%mzn-stat: circuitNumber1MaxValuesPrunedFromSingleVar=7
%%%mzn-stat: circuitNumber1HallCircuitChecks=1939371
%%%mzn-stat: circuitNumber1HallCircuitPrunings=115134
%%%mzn-stat: circuitNumber1CircuitPreventPrunings=370868
%%%mzn-stat: AverageConflictSize=48.69158849450917
%%%mzn-stat: NumUnitNogoodsLearned=0
%%%mzn-stat: AverageLearnedNogoodLength=54.202278715152836
%%%mzn-stat: AverageBacktrackAmount=0
%%%mzn-stat: AverageLbd=53.32484903123518
%%%mzn-stat: 2AutonomousSearchNumBackupCalled=2247
%%%mzn-stat: 2AutonomousSearchNumPredicatesRemoved=0
%%%mzn-stat: 2AutonomousSearchNumCalls=2250
%%%mzn-stat: 2AutonomousSearchNumPredicatesAdded=4572
%%%mzn-stat: 2AutonomousSearchAverageSizeOfHeap=5.8004444444444445
%%%mzn-stat: 2AutonomousSearchNumAssignedPredicatesEncountered=13051
%%%mzn-stat-end
maxleg = 643;
succ = array1d(1..100,[35, 11, 26, 7, 12, 8, 16, 28, 6, 25, 15, 14, 4, 9, 23, 19, 40, 42, 22, 66, 33, 34, 49, 30, 32, 5, 2, 43, 13, 31, 37, 39, 41, 38, 27, 3, 57, 36, 47, 54, 24, 48, 10, 18, 50, 55, 71, 67, 73, 68, 29, 79, 21, 98, 69, 44, 59, 70, 90, 89, 87, 51, 64, 97, 1, 65, 82, 95, 77, 91, 81, 76, 75, 53, 86, 20, 80, 74, 83, 45, 17, 96, 85, 63, 61, 60, 88, 78, 46, 58, 62, 100, 56, 52, 99, 84, 92, 93, 94, 72]);
% time elapsed: 313.46 s
----------
%%%mzn-stat: initTime=0.022493058
%%%mzn-stat: objective=452
%%%mzn-stat: nodes=133465
%%%mzn-stat: restarts=0
%%%mzn-stat: peakDepth=829
%%%mzn-stat: solveTime=306.405554003
%%%mzn-stat: variables=1414
%%%mzn-stat: propagators=1077
%%%mzn-stat: failures=128680
%%%mzn-stat: propagations=3920115
%%%mzn-stat: nogoods=128680
%%%mzn-stat: numAtomicConstraintsPropagated=0
%%%mzn-stat: circuitNumber1PropagationsTotal=769840
%%%mzn-stat: circuitNumber1CircuitConflicts=120192
%%%mzn-stat: circuitNumber1AlldiffConflicts=436
%%%mzn-stat: circuitNumber1TotalFixedEdgesAtConflict=11171635
%%%mzn-stat: circuitNumber1NumberOfConflicts=120628
%%%mzn-stat: circuitNumber1GacPrunings=1017808
%%%mzn-stat: circuitNumber1PropagationsThatGacPruned=419477
%%%mzn-stat: circuitNumber1TotalPruningHallSetSize=2347529
%%%mzn-stat: circuitNumber1NumberOfPruningExplanations=1017808
%%%mzn-stat: circuitNumber1MaxPruningHallSetSize=64
%%%mzn-stat: circuitNumber1TotalSccSizeAtPruning=1604921
%%%mzn-stat: circuitNumber1NumberOfSccPruningCalls=419477
%%%mzn-stat: circuitNumber1TotalVarsInvolvedInPruning=868312
%%%mzn-stat: circuitNumber1MaxValuesPrunedFromSingleVar=7
%%%mzn-stat: circuitNumber1HallCircuitChecks=1940058
%%%mzn-stat: circuitNumber1HallCircuitPrunings=115143
%%%mzn-stat: circuitNumber1CircuitPreventPrunings=370933
%%%mzn-stat: AverageConflictSize=48.68766708113149
%%%mzn-stat: NumUnitNogoodsLearned=0
%%%mzn-stat: AverageLearnedNogoodLength=54.200543985079264
%%%mzn-stat: AverageBacktrackAmount=0
%%%mzn-stat: AverageLbd=53.32124650295306
%%%mzn-stat: 2AutonomousSearchNumBackupCalled=3011
%%%mzn-stat: 2AutonomousSearchNumPredicatesRemoved=0
%%%mzn-stat: 2AutonomousSearchNumCalls=3015
%%%mzn-stat: 2AutonomousSearchNumPredicatesAdded=5320
%%%mzn-stat: 2AutonomousSearchAverageSizeOfHeap=5.788391376451078
%%%mzn-stat: 2AutonomousSearchNumAssignedPredicatesEncountered=17452
%%%mzn-stat-end
maxleg = 452;
succ = array1d(1..100,[35, 11, 26, 7, 12, 8, 16, 28, 6, 25, 15, 14, 4, 9, 23, 19, 40, 42, 22, 66, 33, 34, 61, 30, 32, 5, 2, 43, 13, 31, 37, 39, 41, 38, 27, 3, 57, 36, 47, 49, 24, 44, 10, 56, 50, 69, 71, 55, 54, 68, 29, 79, 21, 73, 46, 60, 59, 70, 90, 89, 87, 51, 64, 76, 52, 65, 48, 95, 77, 91, 81, 100, 75, 53, 86, 20, 80, 74, 83, 45, 17, 96, 85, 63, 1, 93, 88, 78, 67, 58, 62, 97, 98, 72, 99, 84, 82, 18, 94, 92]);
% time elapsed: 313.50 s
----------
%%%mzn-stat: initTime=0.022493058
%%%mzn-stat: objective=323
%%%mzn-stat: nodes=134283
%%%mzn-stat: restarts=0
%%%mzn-stat: peakDepth=829
%%%mzn-stat: solveTime=306.434097458
%%%mzn-stat: variables=1414
%%%mzn-stat: propagators=1077
%%%mzn-stat: failures=128685
%%%mzn-stat: propagations=3922164
%%%mzn-stat: nogoods=128685
%%%mzn-stat: numAtomicConstraintsPropagated=0
%%%mzn-stat: circuitNumber1PropagationsTotal=770007
%%%mzn-stat: circuitNumber1CircuitConflicts=120195
%%%mzn-stat: circuitNumber1AlldiffConflicts=437
%%%mzn-stat: circuitNumber1TotalFixedEdgesAtConflict=11171902
%%%mzn-stat: circuitNumber1NumberOfConflicts=120632
%%%mzn-stat: circuitNumber1GacPrunings=1018287
%%%mzn-stat: circuitNumber1PropagationsThatGacPruned=419559
%%%mzn-stat: circuitNumber1TotalPruningHallSetSize=2349974
%%%mzn-stat: circuitNumber1NumberOfPruningExplanations=1018287
%%%mzn-stat: circuitNumber1MaxPruningHallSetSize=64
%%%mzn-stat: circuitNumber1TotalSccSizeAtPruning=1605454
%%%mzn-stat: circuitNumber1NumberOfSccPruningCalls=419559
%%%mzn-stat: circuitNumber1TotalVarsInvolvedInPruning=868729
%%%mzn-stat: circuitNumber1MaxValuesPrunedFromSingleVar=7
%%%mzn-stat: circuitNumber1HallCircuitChecks=1940570
%%%mzn-stat: circuitNumber1HallCircuitPrunings=115147
%%%mzn-stat: circuitNumber1CircuitPreventPrunings=370979
%%%mzn-stat: AverageConflictSize=48.68624936861328
%%%mzn-stat: NumUnitNogoodsLearned=0
%%%mzn-stat: AverageLearnedNogoodLength=54.20009325096165
%%%mzn-stat: AverageBacktrackAmount=0
%%%mzn-stat: AverageLbd=53.319718692932355
%%%mzn-stat: 2AutonomousSearchNumBackupCalled=3755
%%%mzn-stat: 2AutonomousSearchNumPredicatesRemoved=0
%%%mzn-stat: 2AutonomousSearchNumCalls=3760
%%%mzn-stat: 2AutonomousSearchNumPredicatesAdded=5890
%%%mzn-stat: 2AutonomousSearchAverageSizeOfHeap=5.816755319148936
%%%mzn-stat: 2AutonomousSearchNumAssignedPredicatesEncountered=21871
%%%mzn-stat-end
maxleg = 323;
succ = array1d(1..100,[35, 11, 26, 7, 12, 8, 16, 28, 6, 25, 15, 14, 4, 9, 23, 19, 40, 42, 22, 66, 33, 34, 61, 30, 32, 5, 2, 43, 13, 31, 37, 39, 41, 49, 27, 3, 57, 36, 47, 54, 24, 48, 10, 18, 50, 38, 71, 67, 73, 68, 29, 79, 21, 98, 46, 44, 59, 70, 90, 55, 87, 51, 64, 76, 52, 65, 89, 95, 77, 91, 81, 100, 75, 53, 86, 20, 80, 74, 83, 45, 17, 96, 85, 63, 1, 60, 88, 78, 69, 58, 62, 97, 56, 72, 99, 84, 82, 93, 94, 92]);
% time elapsed: 313.53 s
----------
%%%mzn-stat: initTime=0.022493058
%%%mzn-stat: objective=304
%%%mzn-stat: nodes=135085
%%%mzn-stat: restarts=0
%%%mzn-stat: peakDepth=829
%%%mzn-stat: solveTime=306.456758666
%%%mzn-stat: variables=1414
%%%mzn-stat: propagators=1077
%%%mzn-stat: failures=128685
%%%mzn-stat: propagations=3924079
%%%mzn-stat: nogoods=128685
%%%mzn-stat: numAtomicConstraintsPropagated=0
%%%mzn-stat: circuitNumber1PropagationsTotal=770146
%%%mzn-stat: circuitNumber1CircuitConflicts=120195
%%%mzn-stat: circuitNumber1AlldiffConflicts=437
%%%mzn-stat: circuitNumber1TotalFixedEdgesAtConflict=11171902
%%%mzn-stat: circuitNumber1NumberOfConflicts=120632
%%%mzn-stat: circuitNumber1GacPrunings=1018694
%%%mzn-stat: circuitNumber1PropagationsThatGacPruned=419629
%%%mzn-stat: circuitNumber1TotalPruningHallSetSize=2351935
%%%mzn-stat: circuitNumber1NumberOfPruningExplanations=1018694
%%%mzn-stat: circuitNumber1MaxPruningHallSetSize=65
%%%mzn-stat: circuitNumber1TotalSccSizeAtPruning=1605857
%%%mzn-stat: circuitNumber1NumberOfSccPruningCalls=419629
%%%mzn-stat: circuitNumber1TotalVarsInvolvedInPruning=869092
%%%mzn-stat: circuitNumber1MaxValuesPrunedFromSingleVar=7
%%%mzn-stat: circuitNumber1HallCircuitChecks=1940925
%%%mzn-stat: circuitNumber1HallCircuitPrunings=115150
%%%mzn-stat: circuitNumber1CircuitPreventPrunings=371019
%%%mzn-stat: AverageConflictSize=48.68624936861328
%%%mzn-stat: NumUnitNogoodsLearned=0
%%%mzn-stat: AverageLearnedNogoodLength=54.20009325096165
%%%mzn-stat: AverageBacktrackAmount=0
%%%mzn-stat: AverageLbd=53.319718692932355
%%%mzn-stat: 2AutonomousSearchNumBackupCalled=4494
%%%mzn-stat: 2AutonomousSearchNumPredicatesRemoved=0
%%%mzn-stat: 2AutonomousSearchNumCalls=4500
%%%mzn-stat: 2AutonomousSearchNumPredicatesAdded=5890
%%%mzn-stat: 2AutonomousSearchAverageSizeOfHeap=5.842222222222222
%%%mzn-stat: 2AutonomousSearchNumAssignedPredicatesEncountered=26290
%%%mzn-stat-end
maxleg = 304;
succ = array1d(1..100,[35, 11, 26, 7, 12, 8, 16, 28, 6, 25, 15, 14, 4, 9, 23, 19, 40, 42, 22, 66, 33, 34, 61, 30, 32, 5, 2, 43, 13, 31, 37, 39, 41, 49, 27, 3, 57, 36, 47, 54, 24, 48, 10, 18, 50, 38, 71, 67, 73, 68, 62, 79, 21, 98, 46, 44, 59, 70, 90, 55, 87, 29, 64, 76, 52, 65, 89, 95, 77, 91, 81, 100, 75, 53, 86, 20, 80, 74, 83, 45, 17, 96, 85, 63, 1, 60, 88, 78, 69, 58, 51, 97, 56, 72, 99, 84, 82, 93, 94, 92]);
% time elapsed: 313.56 s
----------
%%%mzn-stat: initTime=0.022493058
%%%mzn-stat: objective=295
%%%mzn-stat: nodes=135907
%%%mzn-stat: restarts=0
%%%mzn-stat: peakDepth=829
%%%mzn-stat: solveTime=306.481225626
%%%mzn-stat: variables=1414
%%%mzn-stat: propagators=1077
%%%mzn-stat: failures=128685
%%%mzn-stat: propagations=3925976
%%%mzn-stat: nogoods=128685
%%%mzn-stat: numAtomicConstraintsPropagated=0
%%%mzn-stat: circuitNumber1PropagationsTotal=770288
%%%mzn-stat: circuitNumber1CircuitConflicts=120195
%%%mzn-stat: circuitNumber1AlldiffConflicts=437
%%%mzn-stat: circuitNumber1TotalFixedEdgesAtConflict=11171902
%%%mzn-stat: circuitNumber1NumberOfConflicts=120632
%%%mzn-stat: circuitNumber1GacPrunings=1019101
%%%mzn-stat: circuitNumber1PropagationsThatGacPruned=419701
%%%mzn-stat: circuitNumber1TotalPruningHallSetSize=2353804
%%%mzn-stat: circuitNumber1NumberOfPruningExplanations=1019101
%%%mzn-stat: circuitNumber1MaxPruningHallSetSize=71
%%%mzn-stat: circuitNumber1TotalSccSizeAtPruning=1606404
%%%mzn-stat: circuitNumber1NumberOfSccPruningCalls=419701
%%%mzn-stat: circuitNumber1TotalVarsInvolvedInPruning=869456
%%%mzn-stat: circuitNumber1MaxValuesPrunedFromSingleVar=7
%%%mzn-stat: circuitNumber1HallCircuitChecks=1941311
%%%mzn-stat: circuitNumber1HallCircuitPrunings=115153
%%%mzn-stat: circuitNumber1CircuitPreventPrunings=371057
%%%mzn-stat: AverageConflictSize=48.68624936861328
%%%mzn-stat: NumUnitNogoodsLearned=0
%%%mzn-stat: AverageLearnedNogoodLength=54.20009325096165
%%%mzn-stat: AverageBacktrackAmount=0
%%%mzn-stat: AverageLbd=53.319718692932355
%%%mzn-stat: 2AutonomousSearchNumBackupCalled=5253
%%%mzn-stat: 2AutonomousSearchNumPredicatesRemoved=0
%%%mzn-stat: 2AutonomousSearchNumCalls=5260
%%%mzn-stat: 2AutonomousSearchNumPredicatesAdded=5890
%%%mzn-stat: 2AutonomousSearchAverageSizeOfHeap=5.838212927756654
%%%mzn-stat: 2AutonomousSearchNumAssignedPredicatesEncountered=30709
%%%mzn-stat-end
maxleg = 295;
succ = array1d(1..100,[35, 11, 26, 7, 12, 8, 16, 28, 6, 25, 15, 14, 4, 9, 23, 19, 40, 42, 22, 66, 33, 34, 61, 30, 32, 5, 2, 43, 13, 31, 37, 39, 41, 51, 27, 3, 57, 36, 47, 49, 24, 48, 54, 18, 50, 38, 71, 67, 73, 68, 62, 79, 21, 98, 46, 44, 59, 70, 90, 55, 87, 10, 64, 76, 52, 65, 89, 95, 77, 91, 81, 100, 75, 53, 86, 20, 80, 74, 83, 45, 17, 96, 85, 63, 1, 60, 88, 78, 69, 58, 29, 97, 56, 72, 99, 84, 82, 93, 94, 92]);
% time elapsed: 313.59 s
----------
%%%mzn-stat: initTime=0.022493058
%%%mzn-stat: objective=295
%%%mzn-stat: nodes=778914
%%%mzn-stat: restarts=0
%%%mzn-stat: peakDepth=829
%%%mzn-stat: solveTime=1793.02394853
%%%mzn-stat: variables=1414
%%%mzn-stat: propagators=1077
%%%mzn-stat: failures=766206
%%%mzn-stat: propagations=23420643
%%%mzn-stat: nogoods=766206
%%%mzn-stat: numAtomicConstraintsPropagated=0
%%%mzn-stat: circuitNumber1PropagationsTotal=4413321
%%%mzn-stat: circuitNumber1CircuitConflicts=673448
%%%mzn-stat: circuitNumber1AlldiffConflicts=681
%%%mzn-stat: circuitNumber1TotalFixedEdgesAtConflict=62010989
%%%mzn-stat: circuitNumber1NumberOfConflicts=674129
%%%mzn-stat: circuitNumber1GacPrunings=5593938
%%%mzn-stat: circuitNumber1PropagationsThatGacPruned=2437845
%%%mzn-stat: circuitNumber1TotalPruningHallSetSize=11111122
%%%mzn-stat: circuitNumber1NumberOfPruningExplanations=5593938
%%%mzn-stat: circuitNumber1MaxPruningHallSetSize=81
%%%mzn-stat: circuitNumber1TotalSccSizeAtPruning=7455393
%%%mzn-stat: circuitNumber1NumberOfSccPruningCalls=2437845
%%%mzn-stat: circuitNumber1TotalVarsInvolvedInPruning=4907518
%%%mzn-stat: circuitNumber1MaxValuesPrunedFromSingleVar=7
%%%mzn-stat: circuitNumber1HallCircuitChecks=12541224
%%%mzn-stat: circuitNumber1HallCircuitPrunings=891324
%%%mzn-stat: circuitNumber1CircuitPreventPrunings=2213834
%%%mzn-stat: AverageConflictSize=24.608985051017612
%%%mzn-stat: NumUnitNogoodsLearned=0
%%%mzn-stat: AverageLearnedNogoodLength=74.34039670793494
%%%mzn-stat: AverageBacktrackAmount=0
%%%mzn-stat: AverageLbd=55.28604448412046
%%%mzn-stat: 2AutonomousSearchNumBackupCalled=5253
%%%mzn-stat: 2AutonomousSearchNumPredicatesRemoved=0
%%%mzn-stat: 2AutonomousSearchNumCalls=5260
%%%mzn-stat: 2AutonomousSearchNumPredicatesAdded=9793
%%%mzn-stat: 2AutonomousSearchAverageSizeOfHeap=5.838212927756654
%%%mzn-stat: 2AutonomousSearchNumAssignedPredicatesEncountered=30709
%%%mzn-stat-end
